NAME: australia-road-km-n3-k1
TYPE: CVRP
DIMENSION: 3
EDGE_WEIGHT_TYPE: EXPLICIT
EDGE_WEIGHT_FORMAT: FULL_MATRIX
EDGE_WEIGHT_UNIT_OF_MEASUREMENT: km
CAPACITY: 5
NODE_COORD_SECTION
1 -27.467834 153.019079
2 -27.463306 153.028396
3 -27.456195 153.033586
EDGE_WEIGHT_SECTION
0.000 1.137 6.996 
1.782 0.000 6.491 
5.596 4.203 0.000 
DEMAND_SECTION
1 0
2 1
3 1
DEPOT_SECTION
1
-1
EOF
